* Signature: 0x2219dec90adc0160
NAME dummy_scale
ROWS
 N  OBJ
 L  C1      
 L  C2      
COLUMNS
    x1        OBJ       2
    x1        C1        4
    x3        OBJ       6
    x3        C2        2
RHS
    RHS1      C1        10
    RHS1      C2        20
BOUNDS
ENDATA
